sat

(objectives
 ((bvadd PriceProv5 (bvadd PriceProv4 (bvadd PriceProv3 (bvadd PriceProv1 PriceProv2)))) (_ bv1059 32))
)
;; statistics
(
 :cnf-variables 2963
 :cnf-literals 15000
 :cnf-clauses 6290
 :sat-checks 14
 :sat-restarts 24
 :sat-decisions 44438
 :sat-random-decisions 22
 :sat-propagations 22854144
 :sat-theory-propagations 2
 :sat-watched-clauses-visited 25732471
 :sat-binary-watched-clauses-visited 15079876
 :sat-conflicts 5086
 :sat-theory-conflicts 0
 :theory-necessary-interface-equalities 0
 :theory-extra-interface-equalities 0
 :euf-total-calls 46529
 :euf-complete-calls 20
 :euf-conflicts 0
 :euf-implications 2
 :euf-explanations 2
 :euf-egraph-nodes-created 15358
 :euf-egraph-nodes-deleted 11152
 :euf-num-asserted-equalities 459999
 :euf-num-asserted-inequalities 383441
 :euf-num-merges 651542
 :euf-num-merges-undone 651542
 :euf-num-atoms-retold 2272
 :la-total-calls 46529
 :la-complete-calls 20
 :la-conflicts 0
 :la-implications 0
 :la-explanations 0
 :la-num-equalities-split 0
 :la-num-tableau-rows 0
 :la-num-tableau-variables 0
 :bv-total-calls 46529
 :bv-complete-calls 20
 :bv-conflicts 0
 :bv-implications 0
 :bv-explanations 0
 :fp-total-calls 46529
 :fp-complete-calls 20
 :fp-conflicts 0
 :fp-implications 0
 :fp-explanations 0
 :arr-total-calls 46529
 :arr-complete-calls 20
 :arr-conflicts 0
 :arr-implications 0
 :arr-explanations 0
 :arr-write-lemmas-added 0
 :arr-row-lemmas-added 0
 :arr-ext-lemmas-added 0
 :arr-const-lemmas-added 0
 :na-total-calls 46529
 :na-complete-calls 20
 :na-conflicts 0
 :na-implications 0
 :na-explanations 0
 :na-num_nonlinear_multiplications 0
 :na-num_axiom_checks 0
 :na-num_zero_lemmas 0
 :na-num_sign_lemmas 0
 :na-num_neutral_lemmas 0
 :na-num_proportionality_lemmas 0
 :na-num_bound_lemmas 0
 :na-num_tangent_lemmas 0
 :na-num_monotonicity_lemmas 0
 :na-num_sat_checks 0
 :na-axiom_check_time 0.000
 :na-sat_check_time 0.000
 :time-seconds 3.300
 :memory-mb 45.247
)
